# Objective value = 8.6268785620258583e+04
allocVar_j_0_k_0 1
allocVar_j_0_k_1 0
allocVar_j_0_k_2 0
allocVar_j_1_k_0 1
allocVar_j_1_k_1 0
allocVar_j_1_k_2 0
allocVar_j_2_k_0 0
allocVar_j_2_k_1 0
allocVar_j_2_k_2 1
cum_prob_j_0_k_0_s_0 0
cum_prob_j_0_k_0_s_1 0
cum_prob_j_0_k_0_s_2 0
cum_prob_j_0_k_0_s_3 0
cum_prob_j_0_k_0_s_4 0
cum_prob_j_0_k_0_s_5 0
cum_prob_j_0_k_0_s_6 0
cum_prob_j_0_k_0_s_7 0
cum_prob_j_0_k_0_s_8 0
cum_prob_j_0_k_0_s_9 0
cum_prob_j_0_k_0_s_10 0
cum_prob_j_0_k_0_s_11 0
cum_prob_j_0_k_0_s_12 0
cum_prob_j_0_k_0_s_13 0
cum_prob_j_0_k_0_s_14 0
cum_prob_j_0_k_0_s_15 0
cum_prob_j_0_k_0_s_16 0
cum_prob_j_0_k_0_s_17 0
cum_prob_j_0_k_0_s_18 2.4568184605161973e+03
cum_prob_j_0_k_0_s_19 3.4233521405446431e+03
cum_prob_j_0_k_0_s_20 3.9330742267458636e+03
cum_prob_j_0_k_0_s_21 3.4083913152438577e+03
cum_prob_j_0_k_0_s_22 4.2977612914792844e+03
cum_prob_j_0_k_0_s_23 4.7291086874607390e+03
cum_prob_j_0_k_0_s_24 3.9379213486454496e+03
cum_prob_j_0_k_0_s_25 4.7093716312853003e+03
cum_prob_j_0_k_0_s_26 4.9115209763119292e+03
cum_prob_j_0_k_1_s_0 0
cum_prob_j_0_k_1_s_1 0
cum_prob_j_0_k_1_s_2 0
cum_prob_j_0_k_1_s_3 0
cum_prob_j_0_k_1_s_4 0
cum_prob_j_0_k_1_s_5 0
cum_prob_j_0_k_1_s_6 0
cum_prob_j_0_k_1_s_7 0
cum_prob_j_0_k_1_s_8 0
cum_prob_j_0_k_1_s_9 0
cum_prob_j_0_k_1_s_10 0
cum_prob_j_0_k_1_s_11 0
cum_prob_j_0_k_1_s_12 0
cum_prob_j_0_k_1_s_13 0
cum_prob_j_0_k_1_s_14 0
cum_prob_j_0_k_1_s_15 0
cum_prob_j_0_k_1_s_16 0
cum_prob_j_0_k_1_s_17 0
cum_prob_j_0_k_1_s_18 0
cum_prob_j_0_k_1_s_19 0
cum_prob_j_0_k_1_s_20 0
cum_prob_j_0_k_1_s_21 0
cum_prob_j_0_k_1_s_22 0
cum_prob_j_0_k_1_s_23 0
cum_prob_j_0_k_1_s_24 0
cum_prob_j_0_k_1_s_25 0
cum_prob_j_0_k_1_s_26 0
cum_prob_j_0_k_2_s_0 0
cum_prob_j_0_k_2_s_1 0
cum_prob_j_0_k_2_s_2 0
cum_prob_j_0_k_2_s_3 0
cum_prob_j_0_k_2_s_4 0
cum_prob_j_0_k_2_s_5 0
cum_prob_j_0_k_2_s_6 0
cum_prob_j_0_k_2_s_7 0
cum_prob_j_0_k_2_s_8 0
cum_prob_j_0_k_2_s_9 0
cum_prob_j_0_k_2_s_10 0
cum_prob_j_0_k_2_s_11 0
cum_prob_j_0_k_2_s_12 0
cum_prob_j_0_k_2_s_13 0
cum_prob_j_0_k_2_s_14 0
cum_prob_j_0_k_2_s_15 0
cum_prob_j_0_k_2_s_16 0
cum_prob_j_0_k_2_s_17 0
cum_prob_j_0_k_2_s_18 0
cum_prob_j_0_k_2_s_19 0
cum_prob_j_0_k_2_s_20 0
cum_prob_j_0_k_2_s_21 0
cum_prob_j_0_k_2_s_22 0
cum_prob_j_0_k_2_s_23 0
cum_prob_j_0_k_2_s_24 0
cum_prob_j_0_k_2_s_25 0
cum_prob_j_0_k_2_s_26 0
cum_prob_j_1_k_0_s_0 0
cum_prob_j_1_k_0_s_1 0
cum_prob_j_1_k_0_s_2 0
cum_prob_j_1_k_0_s_3 0
cum_prob_j_1_k_0_s_4 0
cum_prob_j_1_k_0_s_5 0
cum_prob_j_1_k_0_s_6 0
cum_prob_j_1_k_0_s_7 0
cum_prob_j_1_k_0_s_8 0
cum_prob_j_1_k_0_s_9 0
cum_prob_j_1_k_0_s_10 0
cum_prob_j_1_k_0_s_11 0
cum_prob_j_1_k_0_s_12 0
cum_prob_j_1_k_0_s_13 0
cum_prob_j_1_k_0_s_14 0
cum_prob_j_1_k_0_s_15 0
cum_prob_j_1_k_0_s_16 0
cum_prob_j_1_k_0_s_17 0
cum_prob_j_1_k_0_s_18 0
cum_prob_j_1_k_0_s_19 0
cum_prob_j_1_k_0_s_20 0
cum_prob_j_1_k_0_s_21 0
cum_prob_j_1_k_0_s_22 0
cum_prob_j_1_k_0_s_23 0
cum_prob_j_1_k_0_s_24 0
cum_prob_j_1_k_0_s_25 0
cum_prob_j_1_k_0_s_26 0
cum_prob_j_1_k_1_s_0 0
cum_prob_j_1_k_1_s_1 0
cum_prob_j_1_k_1_s_2 0
cum_prob_j_1_k_1_s_3 0
cum_prob_j_1_k_1_s_4 0
cum_prob_j_1_k_1_s_5 0
cum_prob_j_1_k_1_s_6 0
cum_prob_j_1_k_1_s_7 0
cum_prob_j_1_k_1_s_8 0
cum_prob_j_1_k_1_s_9 0
cum_prob_j_1_k_1_s_10 0
cum_prob_j_1_k_1_s_11 0
cum_prob_j_1_k_1_s_12 0
cum_prob_j_1_k_1_s_13 0
cum_prob_j_1_k_1_s_14 0
cum_prob_j_1_k_1_s_15 0
cum_prob_j_1_k_1_s_16 0
cum_prob_j_1_k_1_s_17 0
cum_prob_j_1_k_1_s_18 0
cum_prob_j_1_k_1_s_19 0
cum_prob_j_1_k_1_s_20 0
cum_prob_j_1_k_1_s_21 0
cum_prob_j_1_k_1_s_22 0
cum_prob_j_1_k_1_s_23 0
cum_prob_j_1_k_1_s_24 0
cum_prob_j_1_k_1_s_25 0
cum_prob_j_1_k_1_s_26 0
cum_prob_j_1_k_2_s_0 0
cum_prob_j_1_k_2_s_1 0
cum_prob_j_1_k_2_s_2 0
cum_prob_j_1_k_2_s_3 0
cum_prob_j_1_k_2_s_4 0
cum_prob_j_1_k_2_s_5 0
cum_prob_j_1_k_2_s_6 0
cum_prob_j_1_k_2_s_7 0
cum_prob_j_1_k_2_s_8 0
cum_prob_j_1_k_2_s_9 0
cum_prob_j_1_k_2_s_10 0
cum_prob_j_1_k_2_s_11 0
cum_prob_j_1_k_2_s_12 0
cum_prob_j_1_k_2_s_13 0
cum_prob_j_1_k_2_s_14 0
cum_prob_j_1_k_2_s_15 0
cum_prob_j_1_k_2_s_16 0
cum_prob_j_1_k_2_s_17 0
cum_prob_j_1_k_2_s_18 0
cum_prob_j_1_k_2_s_19 0
cum_prob_j_1_k_2_s_20 0
cum_prob_j_1_k_2_s_21 0
cum_prob_j_1_k_2_s_22 0
cum_prob_j_1_k_2_s_23 0
cum_prob_j_1_k_2_s_24 0
cum_prob_j_1_k_2_s_25 0
cum_prob_j_1_k_2_s_26 0
cum_prob_j_2_k_0_s_0 0
cum_prob_j_2_k_0_s_1 0
cum_prob_j_2_k_0_s_2 0
cum_prob_j_2_k_0_s_3 0
cum_prob_j_2_k_0_s_4 0
cum_prob_j_2_k_0_s_5 0
cum_prob_j_2_k_0_s_6 0
cum_prob_j_2_k_0_s_7 0
cum_prob_j_2_k_0_s_8 0
cum_prob_j_2_k_0_s_9 0
cum_prob_j_2_k_0_s_10 0
cum_prob_j_2_k_0_s_11 0
cum_prob_j_2_k_0_s_12 0
cum_prob_j_2_k_0_s_13 0
cum_prob_j_2_k_0_s_14 0
cum_prob_j_2_k_0_s_15 0
cum_prob_j_2_k_0_s_16 0
cum_prob_j_2_k_0_s_17 0
cum_prob_j_2_k_0_s_18 0
cum_prob_j_2_k_0_s_19 0
cum_prob_j_2_k_0_s_20 0
cum_prob_j_2_k_0_s_21 0
cum_prob_j_2_k_0_s_22 0
cum_prob_j_2_k_0_s_23 0
cum_prob_j_2_k_0_s_24 0
cum_prob_j_2_k_0_s_25 0
cum_prob_j_2_k_0_s_26 0
cum_prob_j_2_k_1_s_0 0
cum_prob_j_2_k_1_s_1 0
cum_prob_j_2_k_1_s_2 0
cum_prob_j_2_k_1_s_3 0
cum_prob_j_2_k_1_s_4 0
cum_prob_j_2_k_1_s_5 0
cum_prob_j_2_k_1_s_6 0
cum_prob_j_2_k_1_s_7 0
cum_prob_j_2_k_1_s_8 0
cum_prob_j_2_k_1_s_9 0
cum_prob_j_2_k_1_s_10 0
cum_prob_j_2_k_1_s_11 0
cum_prob_j_2_k_1_s_12 0
cum_prob_j_2_k_1_s_13 0
cum_prob_j_2_k_1_s_14 0
cum_prob_j_2_k_1_s_15 0
cum_prob_j_2_k_1_s_16 0
cum_prob_j_2_k_1_s_17 0
cum_prob_j_2_k_1_s_18 0
cum_prob_j_2_k_1_s_19 0
cum_prob_j_2_k_1_s_20 0
cum_prob_j_2_k_1_s_21 0
cum_prob_j_2_k_1_s_22 0
cum_prob_j_2_k_1_s_23 0
cum_prob_j_2_k_1_s_24 0
cum_prob_j_2_k_1_s_25 0
cum_prob_j_2_k_1_s_26 0
cum_prob_j_2_k_2_s_0 3.6899954571011602e+02
cum_prob_j_2_k_2_s_1 1.4139072498796047e+03
cum_prob_j_2_k_2_s_2 2.1847815215997957e+03
cum_prob_j_2_k_2_s_3 1.4038513249438415e+03
cum_prob_j_2_k_2_s_4 2.4312438946441716e+03
cum_prob_j_2_k_2_s_5 3.0886927168391089e+03
cum_prob_j_2_k_2_s_6 2.1374643576635258e+03
cum_prob_j_2_k_2_s_7 3.1189799488815183e+03
cum_prob_j_2_k_2_s_8 3.6370229597006128e+03
cum_prob_j_2_k_2_s_9 1.6366591833355963e+03
cum_prob_j_2_k_2_s_10 2.6769112500603455e+03
cum_prob_j_2_k_2_s_11 3.3903020296189015e+03
cum_prob_j_2_k_2_s_12 2.6597884870663770e+03
cum_prob_j_2_k_2_s_13 3.6743933104286461e+03
cum_prob_j_2_k_2_s_14 4.2706861898907282e+03
cum_prob_j_2_k_2_s_15 3.3498130227653464e+03
cum_prob_j_2_k_2_s_16 4.2963574170134643e+03
cum_prob_j_2_k_2_s_17 4.7216111319835918e+03
cum_prob_j_2_k_2_s_18 2.4568184605161982e+03
cum_prob_j_2_k_2_s_19 3.4233521405446440e+03
cum_prob_j_2_k_2_s_20 3.9330742267458636e+03
cum_prob_j_2_k_2_s_21 3.4083913152438586e+03
cum_prob_j_2_k_2_s_22 4.2977612914792844e+03
cum_prob_j_2_k_2_s_23 4.7291086874607390e+03
cum_prob_j_2_k_2_s_24 3.9379213486454496e+03
cum_prob_j_2_k_2_s_25 4.7093716312853003e+03
cum_prob_j_2_k_2_s_26 4.9115209763119292e+03
